problems/Promedus_31/Promedus_31.gr
p tw 466 809
466 76
466 90
76 90
465 151
465 466
151 466
464 1
464 465
1 465
463 127
463 464
127 464
462 111
462 463
111 463
461 28
461 462
28 462
460 143
460 461
143 461
459 131
459 460
131 460
458 78
458 459
78 459
457 72
457 458
72 458
456 155
456 457
155 457
455 6
455 456
6 456
454 31
454 455
31 455
453 195
453 454
195 454
452 182
452 453
182 453
451 135
451 452
135 452
450 20
450 451
20 451
449 109
449 450
109 450
448 168
448 449
168 449
447 57
447 448
57 448
446 186
446 447
186 447
445 134
445 446
134 446
444 36
444 445
36 445
443 114
443 444
114 444
442 188
442 443
188 443
441 5
441 442
5 442
440 67
440 441
67 441
439 53
439 440
53 440
438 66
438 439
66 439
437 121
437 438
121 438
436 110
436 437
110 437
435 125
435 436
125 436
434 44
434 435
44 435
433 15
433 434
15 434
432 123
432 433
123 433
431 120
431 432
120 432
430 166
430 431
166 431
429 133
429 430
133 430
428 180
428 429
180 429
427 106
427 428
106 428
426 64
426 427
64 427
425 12
425 426
12 426
424 161
424 425
161 425
423 136
423 424
136 424
422 83
422 423
83 423
421 185
421 422
185 422
420 179
420 421
179 421
419 101
419 420
101 420
418 97
418 419
97 419
417 112
417 418
112 418
416 163
416 417
163 417
415 93
415 416
93 416
414 70
414 415
70 415
413 152
413 414
152 414
412 147
412 413
147 413
411 148
411 412
148 412
410 9
410 411
9 411
409 7
409 410
7 410
408 4
408 409
4 409
407 35
407 408
35 408
406 62
406 407
62 407
405 167
405 406
167 406
404 126
404 405
126 405
403 103
403 404
103 404
402 113
402 403
113 403
401 191
401 402
191 402
400 119
400 401
119 401
399 86
399 400
86 400
398 171
398 399
171 399
397 82
397 398
82 398
396 117
396 397
117 397
395 23
395 396
23 396
394 124
394 395
124 395
393 154
393 394
154 394
392 104
392 393
104 393
30 392
391 151
391 145
151 145
390 49
390 391
49 391
389 63
389 390
63 390
388 173
388 389
173 389
387 27
387 388
27 388
386 32
386 387
32 387
385 195
385 386
195 386
384 65
384 385
65 385
383 186
383 384
186 384
382 128
382 383
128 383
381 105
381 382
105 382
380 79
380 381
79 381
379 24
379 380
24 380
378 95
378 379
95 379
377 87
377 378
87 378
376 18
376 377
18 377
375 146
375 376
146 376
374 166
374 375
166 375
373 180
373 374
180 374
372 161
372 373
161 373
371 136
371 372
136 372
370 101
370 371
101 371
369 179
369 370
179 370
368 185
368 369
185 369
367 169
367 368
169 368
366 55
366 367
55 367
365 175
365 366
175 366
364 163
364 365
163 365
363 68
363 364
68 364
362 80
362 363
80 363
361 71
361 362
71 362
360 167
360 361
167 361
359 62
359 360
62 360
358 38
358 359
38 359
357 11
357 358
11 358
356 74
356 357
74 357
355 99
355 356
99 356
354 164
354 355
164 355
353 75
353 354
75 354
352 172
352 353
172 353
351 138
351 352
138 352
350 26
350 351
26 351
349 52
349 350
52 350
348 143
348 349
143 349
347 77
347 348
77 348
346 193
346 347
193 347
345 60
345 346
60 346
344 54
344 345
54 345
343 155
343 344
155 344
342 78
342 343
78 343
341 33
341 342
33 342
340 182
340 341
182 341
339 107
339 340
107 340
338 176
338 339
176 339
337 57
337 338
57 338
336 58
336 337
58 337
335 114
335 336
114 336
334 53
334 335
53 335
333 67
333 334
67 334
332 8
332 333
8 333
331 96
331 332
96 332
330 45
330 331
45 331
329 44
329 330
44 330
328 187
328 329
187 329
327 160
327 328
160 328
326 156
326 327
156 327
325 132
325 326
132 326
324 42
324 325
42 325
323 3
323 324
3 324
322 133
322 323
133 323
321 40
321 322
40 322
320 98
320 321
98 321
319 106
319 320
106 320
318 51
318 319
51 319
317 64
317 318
64 318
316 137
316 317
137 317
315 14
315 316
14 316
314 69
314 315
69 315
313 112
313 314
112 314
312 85
312 313
85 313
311 93
311 312
93 312
310 158
310 311
158 311
309 178
309 310
178 310
308 147
308 309
147 309
307 148
307 308
148 308
306 61
306 307
61 307
305 7
305 306
7 306
304 118
304 305
118 305
303 47
303 304
47 304
302 41
302 303
41 303
301 119
301 302
119 302
300 116
300 301
116 301
299 86
299 300
86 300
298 82
298 299
82 299
297 184
297 298
184 298
296 73
296 297
73 297
295 154
295 296
154 296
294 130
294 295
130 295
293 90
293 294
90 294
292 94
292 293
94 293
291 76
291 292
76 292
290 39
290 291
39 291
289 1
289 290
1 290
288 127
288 289
127 289
287 183
287 288
183 288
286 28
286 287
28 287
285 46
285 286
46 286
284 25
284 285
25 285
283 131
283 284
131 284
282 181
282 283
181 283
281 6
281 282
6 282
280 31
280 281
31 281
279 153
279 280
153 280
278 189
278 279
189 279
277 20
277 278
20 278
276 168
276 277
168 277
275 36
275 276
36 276
274 5
274 275
5 275
273 188
273 274
188 274
272 115
272 273
115 273
271 121
271 272
121 272
270 66
270 271
66 271
269 110
269 270
110 270
268 144
268 269
144 269
267 48
267 268
48 268
266 88
266 267
88 267
265 170
265 266
170 266
264 142
264 265
142 265
263 174
263 264
174 264
262 12
262 263
12 263
261 50
261 262
50 262
260 84
260 261
84 261
259 139
259 260
139 260
258 190
258 259
190 259
257 122
257 258
122 258
256 22
256 257
22 257
255 91
255 256
91 256
254 159
254 255
159 255
253 70
253 254
70 254
252 108
252 253
108 253
251 141
251 252
141 252
250 129
250 251
129 251
249 126
249 250
126 250
248 103
248 249
103 249
247 100
247 248
100 248
246 113
246 247
113 247
245 89
245 246
89 246
244 56
244 245
56 245
243 191
243 244
191 244
242 140
242 243
140 243
241 171
241 242
171 242
240 23
240 241
23 241
239 150
239 240
150 240
238 81
238 239
81 239
237 162
237 238
162 238
236 165
236 237
165 237
235 92
235 236
92 236
234 111
234 235
111 235
233 197
233 234
197 234
232 149
232 233
149 233
231 2
231 232
2 232
230 16
230 231
16 231
229 21
229 230
21 230
228 19
228 229
19 229
227 72
227 228
72 228
226 135
226 227
135 227
225 109
225 226
109 226
224 177
224 225
177 225
223 134
223 224
134 224
222 13
222 223
13 223
221 125
221 222
125 222
220 192
220 221
192 221
219 157
219 220
157 220
218 15
218 219
15 219
217 123
217 218
123 218
216 120
216 217
120 217
215 102
215 216
102 216
214 83
214 215
83 215
213 194
213 214
194 214
212 97
212 213
97 213
211 59
211 212
59 212
210 37
210 211
37 211
209 34
209 210
34 210
208 29
208 209
29 209
207 152
207 208
152 208
206 10
206 207
10 207
205 9
205 206
9 206
204 4
204 205
4 205
203 35
203 204
35 204
202 17
202 203
17 203
201 117
201 202
117 202
200 124
200 201
124 201
199 43
199 200
43 200
198 104
198 199
104 199
196 198
