problems/Promedus_31/Promedus_31.td
c read Graph
c width = 221
c time = 318 ms
c width = 12
c time = 437 ms
c width = 11
c time = 1737 ms
c width = 10
c time = 1755 ms
c width = 9
c time = 18365 ms
c width = 9
c time = 299883 ms
s td 390 10 466
b 1 30 392
b 2 196 198
b 3 151 386 465 466
b 4 124 200 201 393
b 5 117 201 202 203
b 6 9 205 206 207
b 7 152 207 208 212
b 8 97 212 213 214
b 9 83 214 215 216
b 10 15 218 219 221
b 11 125 221 222 223
b 12 134 223 224 225
b 13 72 227 228 234
b 14 111 234 235 240
b 15 171 241 242 243
b 16 191 243 244 246
b 17 113 246 247 248
b 18 126 249 250 253
b 19 70 253 254 262
b 20 12 262 263 269
b 21 121 271 272 273
b 22 20 277 278 280
b 23 6 281 282 283
b 24 131 283 284 286
b 25 28 286 287 288
b 26 1 289 290 291
b 27 76 291 292 293
b 28 90 293 294 295
b 29 154 295 296 298
b 30 86 299 300 301
b 31 119 301 302 305
b 32 7 305 306 307
b 33 147 308 309 311
b 34 93 311 312 313
b 35 112 313 314 317
b 36 64 317 318 319
b 37 106 319 320 322
b 38 133 322 323 329
b 39 44 329 330 333
b 40 114 335 336 337
b 41 57 337 338 340
b 42 182 340 341 342
b 43 155 343 344 348
b 44 143 348 349 359
b 45 167 360 361 364
b 46 163 364 365 368
b 47 166 374 375 383
b 48 186 383 384 385
b 49 76 90 291 293 466
b 50 90 291 293 295 466
b 51 291 295 386 465 466
b 52 288 291 295 386 463 465
b 53 227 240 280 288 295 342 359 386 454 463
b 54 227 240 280 295 342 359 385 386 453 454
b 55 227 240 280 295 340 342 359 385 452 453
b 56 226 227 240 280 295 340 359 385 451 452
b 57 226 240 277 280 295 340 359 385 450 451
b 58 225 226 240 277 295 340 359 385 449 450
b 59 225 240 276 277 295 340 359 385 448 449
b 60 225 240 276 295 337 340 359 385 447 448
b 61 225 240 276 295 337 359 383 385 446 447
b 62 223 225 240 276 295 337 359 383 445 446
b 63 223 240 275 276 295 337 359 383 444 445
b 64 223 240 275 295 335 337 359 383 443 444
b 65 114 335 337 443 444
b 66 223 240 273 275 295 335 359 383 441 443
b 67 273 274 275 441 442 443
b 68 188 273 274 442 443
b 69 5 274 275 441 442
b 70 223 240 273 295 333 335 359 383 439 441
b 71 333 334 335 439 440 441
b 72 53 334 335 439 440
b 73 67 333 334 440 441
b 74 223 240 269 273 295 333 359 383 436 439
b 75 269 270 273 436 437 439
b 76 110 269 270 436 437
b 77 270 271 273 437 438 439
b 78 121 271 273 437 438
b 79 66 270 271 438 439
b 80 221 223 240 269 295 333 359 383 435 436
b 81 125 221 223 435 436
b 82 221 240 269 295 329 333 359 383 434 435
b 83 44 329 333 434 435
b 84 15 221 240 269 295 329 359 383 433 434
b 85 15 218 221 240 269 295 329 359 383 433
b 86 216 218 240 269 295 329 359 383 431 433
b 87 216 217 218 431 432 433
b 88 123 217 218 432 433
b 89 120 216 217 431 432
b 90 36 275 276 444 445
b 91 134 223 225 445 446
b 92 186 383 385 446 447
b 93 57 337 340 447 448
b 94 168 276 277 448 449
b 95 109 225 226 449 450
b 96 20 277 280 450 451
b 97 135 226 227 451 452
b 98 182 340 342 452 453
b 99 195 385 386 453 454
b 100 227 234 240 280 288 342 359 454 462 463
b 101 111 234 240 462 463
b 102 227 234 280 283 288 342 359 454 456 462
b 103 280 281 283 454 455 456
b 104 31 280 281 454 455
b 105 6 281 283 455 456
b 106 227 234 283 288 342 359 456 459 462
b 107 227 234 283 288 342 348 359 456 459 462
b 108 283 288 348 359 459 460 461 462
b 109 143 348 359 460 461
b 110 283 286 288 459 460 461 462
b 111 131 283 286 459 460
b 112 28 286 288 461 462
b 113 227 234 342 348 456 457 458 459
b 114 342 343 348 456 457 458 459
b 115 155 343 348 456 457
b 116 78 342 343 458 459
b 117 72 227 234 457 458
b 118 288 289 291 463 464 465
b 119 127 288 289 463 464
b 120 1 289 291 464 465
b 121 4 204 205 408 409
b 122 23 204 205 240 241 395 396 408 409
b 123 35 203 204 205 240 241 395 396 408 409
b 124 35 203 205 240 241 395 396 407 408 409
b 125 117 201 203 205 240 241 395 396 407 409
b 126 117 201 205 240 241 395 396 397 407 409
b 127 154 201 205 240 241 395 396 397 407 409
b 128 154 205 240 241 295 298 396 397 407 409
b 129 82 205 240 241 295 298 299 397 407 409
b 130 82 205 240 241 295 299 397 398 407 409
b 131 171 205 240 241 243 295 299 398 407 409
b 132 171 205 240 243 295 299 398 399 407 409
b 133 86 205 240 243 295 299 301 399 407 409
b 134 86 205 240 243 295 301 399 400 407 409
b 135 119 205 240 243 295 301 305 400 407 409
b 136 119 205 240 243 295 305 400 401 407 409
b 137 191 205 240 243 246 295 305 401 407 409
b 138 191 205 240 246 295 305 401 402 407 409
b 139 113 205 240 246 248 295 305 402 407 409
b 140 113 205 240 248 295 305 402 403 407 409
b 141 103 205 240 248 249 295 305 403 407 409
b 142 103 205 240 249 295 305 403 404 407 409
b 143 126 205 240 249 253 295 305 404 407 409
b 144 126 205 240 253 295 305 404 405 407 409
b 145 205 240 253 295 305 307 405 407 409 410
b 146 205 207 240 253 295 307 405 407 410 411
b 147 148 207 240 253 295 307 308 405 407 411
b 148 148 207 240 253 295 308 405 407 411 412
b 149 147 207 240 253 295 308 311 405 407 412
b 150 147 207 240 253 295 311 405 407 412 413
b 151 152 207 212 240 253 295 311 405 407 413
b 152 152 212 240 253 295 311 405 407 413 414
b 153 70 212 240 253 262 295 311 405 407 414
b 154 70 212 240 262 295 311 405 407 414 415
b 155 93 212 240 262 295 311 313 405 407 415
b 156 93 212 240 262 295 313 405 407 415 416
b 157 167 212 240 262 295 313 405 406 407 416
b 158 62 167 212 240 262 295 313 406 407 416
b 159 62 167 212 240 262 295 313 359 360 416
b 160 167 212 240 262 295 313 359 360 364 416
b 161 163 212 240 262 295 313 359 364 368 416
b 162 163 212 240 262 295 313 359 368 416 417
b 163 112 212 240 262 295 313 317 359 368 417
b 164 112 212 240 262 295 317 359 368 417 418
b 165 97 212 214 240 262 295 317 359 368 418
b 166 97 214 240 262 295 317 359 368 418 419
b 167 214 240 262 295 317 359 368 371 419 422
b 168 214 216 240 262 295 317 359 371 422 423
b 169 216 240 262 295 317 359 371 373 423 425
b 170 216 240 262 269 295 317 359 373 425 426
b 171 216 240 269 295 317 319 359 373 426 427
b 172 216 240 269 295 319 322 359 373 427 428
b 173 216 240 269 295 322 359 373 374 428 429
b 174 216 240 269 295 322 329 359 374 429 430
b 175 216 240 269 295 329 359 374 383 430 431
b 176 368 370 371 419 420 422
b 177 368 369 370 420 421 422
b 178 179 369 370 420 421
b 179 185 368 369 421 422
b 180 101 370 371 419 420
b 181 83 214 216 422 423
b 182 371 372 373 423 424 425
b 183 136 371 372 423 424
b 184 161 372 373 424 425
b 185 12 262 269 425 426
b 186 64 317 319 426 427
b 187 7 305 307 409 410
b 188 9 205 207 410 411
b 189 106 319 322 427 428
b 190 180 373 374 428 429
b 191 133 322 329 429 430
b 192 166 374 383 430 431
b 193 154 201 393 394 395
b 194 124 201 393 394 395
b 195 65 384 385
b 196 128 382 383
b 197 375 382 383
b 198 105 381 382
b 199 375 381 382
b 200 79 380 381
b 201 375 380 381
b 202 24 379 380
b 203 375 379 380
b 204 95 378 379
b 205 375 378 379
b 206 87 377 378
b 207 375 377 378
b 208 18 376 377
b 209 375 376 377
b 210 146 375 376
b 211 169 367 368
b 212 365 367 368
b 213 55 366 367
b 214 365 366 367
b 215 175 365 366
b 216 68 363 364
b 217 361 363 364
b 218 80 362 363
b 219 361 362 363
b 220 71 361 362
b 221 38 358 359
b 222 349 358 359
b 223 11 357 358
b 224 349 357 358
b 225 74 356 357
b 226 349 356 357
b 227 99 355 356
b 228 349 355 356
b 229 164 354 355
b 230 349 354 355
b 231 75 353 354
b 232 349 353 354
b 233 172 352 353
b 234 349 352 353
b 235 138 351 352
b 236 349 351 352
b 237 26 350 351
b 238 349 350 351
b 239 52 349 350
b 240 77 347 348
b 241 344 347 348
b 242 193 346 347
b 243 344 346 347
b 244 60 345 346
b 245 344 345 346
b 246 54 344 345
b 247 33 341 342
b 248 107 339 340
b 249 338 339 340
b 250 176 338 339
b 251 58 336 337
b 252 8 332 333
b 253 330 332 333
b 254 96 331 332
b 255 330 331 332
b 256 45 330 331
b 257 187 328 329
b 258 323 328 329
b 259 160 327 328
b 260 323 327 328
b 261 156 326 327
b 262 323 326 327
b 263 132 325 326
b 264 323 325 326
b 265 42 324 325
b 266 323 324 325
b 267 3 323 324
b 268 40 321 322
b 269 320 321 322
b 270 98 320 321
b 271 51 318 319
b 272 137 316 317
b 273 314 316 317
b 274 14 315 316
b 275 314 315 316
b 276 69 314 315
b 277 85 312 313
b 278 158 310 311
b 279 309 310 311
b 280 178 309 310
b 281 61 306 307
b 282 118 304 305
b 283 302 304 305
b 284 47 303 304
b 285 302 303 304
b 286 41 302 303
b 287 116 300 301
b 288 184 297 298
b 289 296 297 298
b 290 73 296 297
b 291 130 294 295
b 292 94 292 293
b 293 39 290 291
b 294 183 287 288
b 295 46 285 286
b 296 284 285 286
b 297 25 284 285
b 298 181 282 283
b 299 153 279 280
b 300 278 279 280
b 301 189 278 279
b 302 115 272 273
b 303 144 268 269
b 304 263 268 269
b 305 48 267 268
b 306 263 267 268
b 307 88 266 267
b 308 263 266 267
b 309 170 265 266
b 310 263 265 266
b 311 142 264 265
b 312 263 264 265
b 313 174 263 264
b 314 50 261 262
b 315 254 261 262
b 316 84 260 261
b 317 254 260 261
b 318 139 259 260
b 319 254 259 260
b 320 190 258 259
b 321 254 258 259
b 322 122 257 258
b 323 254 257 258
b 324 22 256 257
b 325 254 256 257
b 326 91 255 256
b 327 254 255 256
b 328 159 254 255
b 329 108 252 253
b 330 250 252 253
b 331 141 251 252
b 332 250 251 252
b 333 129 250 251
b 334 100 247 248
b 335 89 245 246
b 336 244 245 246
b 337 56 244 245
b 338 140 242 243
b 339 150 239 240
b 340 235 239 240
b 341 81 238 239
b 342 235 238 239
b 343 162 237 238
b 344 235 237 238
b 345 165 236 237
b 346 235 236 237
b 347 92 235 236
b 348 197 233 234
b 349 228 233 234
b 350 149 232 233
b 351 228 232 233
b 352 2 231 232
b 353 228 231 232
b 354 16 230 231
b 355 228 230 231
b 356 21 229 230
b 357 228 229 230
b 358 19 228 229
b 359 177 224 225
b 360 13 222 223
b 361 192 220 221
b 362 219 220 221
b 363 157 219 220
b 364 102 215 216
b 365 194 213 214
b 366 59 211 212
b 367 208 211 212
b 368 37 210 211
b 369 208 210 211
b 370 34 209 210
b 371 208 209 210
b 372 29 208 209
b 373 10 206 207
b 374 17 202 203
b 375 104 200 393
b 376 27 387 388
b 377 151 387 388
b 378 49 390 391
b 379 151 390 391
b 380 145 151 391
b 381 63 389 390
b 382 151 389 390
b 383 151 388 389
b 384 173 388 389
b 385 32 386 387
b 386 151 386 387
b 387 104 392 393
b 388 43 199 200
b 389 104 199 200
b 390 104 198 199
1 387
2 390
3 386
3 51
4 375
4 194
5 374
5 125
6 373
6 188
7 367
7 151
8 365
8 165
9 364
9 181
10 362
10 85
11 360
11 81
12 359
12 91
13 349
13 117
14 340
14 101
15 338
15 131
16 336
16 137
17 334
17 139
18 330
18 143
19 315
19 153
20 304
20 185
21 302
21 78
22 300
22 96
23 298
23 105
24 296
24 111
25 294
25 112
26 293
26 120
27 292
27 49
28 291
28 50
29 289
29 128
30 287
30 133
31 283
31 135
32 281
32 187
33 279
33 149
34 277
34 155
35 273
35 163
36 271
36 186
37 269
37 189
38 258
38 191
39 253
39 83
40 251
40 65
41 249
41 93
42 247
42 98
43 241
43 115
44 222
44 109
45 217
45 160
46 212
46 161
47 197
47 192
48 195
48 92
49 50
50 51
51 52
52 118
52 53
53 54
53 100
54 55
54 99
55 56
55 98
56 57
56 97
57 96
57 58
58 95
58 59
59 60
59 94
60 61
60 93
61 62
61 92
62 63
62 91
63 90
63 64
64 66
64 65
66 70
66 67
67 69
67 68
70 74
70 71
71 72
71 73
74 80
74 75
75 76
75 77
77 78
77 79
80 82
80 81
82 84
82 83
84 85
85 86
86 175
86 87
87 88
87 89
100 101
100 102
102 106
102 103
103 105
103 104
106 107
107 108
107 113
108 110
108 109
110 111
110 112
113 117
113 114
114 116
114 115
118 119
118 120
121 122
122 123
123 124
124 125
125 126
126 127
127 193
127 128
128 129
129 130
130 131
131 132
132 133
133 134
134 135
135 136
136 137
137 138
138 139
139 140
140 141
141 142
142 143
143 144
144 145
145 187
145 146
146 188
146 147
147 148
148 149
149 150
150 151
151 152
152 153
153 154
154 155
155 156
156 157
157 158
158 159
159 160
160 161
161 162
162 163
163 164
164 165
165 166
166 167
167 176
167 168
168 181
168 169
169 182
169 170
170 185
170 171
171 186
171 172
172 189
172 173
173 190
173 174
174 191
174 175
175 192
176 180
176 177
177 178
177 179
182 183
182 184
193 194
196 197
197 199
198 199
199 201
200 201
201 203
202 203
203 205
204 205
205 207
206 207
207 209
208 209
209 210
211 212
212 214
213 214
214 215
216 217
217 219
218 219
219 220
221 222
222 224
223 224
224 226
225 226
226 228
227 228
228 230
229 230
230 232
231 232
232 234
233 234
234 236
235 236
236 238
237 238
238 239
240 241
241 243
242 243
243 245
244 245
245 246
248 249
249 250
252 253
253 255
254 255
255 256
257 258
258 260
259 260
260 262
261 262
262 264
263 264
264 266
265 266
266 267
268 269
269 270
272 273
273 275
274 275
275 276
278 279
279 280
282 283
283 285
284 285
285 286
288 289
289 290
295 296
296 297
299 300
300 301
303 304
304 306
305 306
306 308
307 308
308 310
309 310
310 312
311 312
312 313
314 315
315 317
316 317
317 319
318 319
319 321
320 321
321 323
322 323
323 325
324 325
325 327
326 327
327 328
329 330
330 332
331 332
332 333
335 336
336 337
339 340
340 342
341 342
342 344
343 344
344 346
345 346
346 347
348 349
349 351
350 351
351 353
352 353
353 355
354 355
355 357
356 357
357 358
361 362
362 363
366 367
367 369
368 369
369 371
370 371
371 372
375 389
375 387
376 377
377 386
377 383
378 379
379 382
379 380
381 382
382 383
383 384
385 386
388 389
389 390
